1 40 100 63 152 77 19 83 104 21 31 13 33 70 95 32 35 57 185 24 88 25 230 36 177 39 137 6 185 96 76 52 47 98 151 45 204 75 216 23 70 33 231 17 112 37 106 56 213 50 31 76 84 72 161 51 125 69 41 88 64 11 174 48 20 16 114 9 241 46 231 26 194 14 161 67 105 74 122 7 233 64 193 
